conditionSynthesis/results/repairExamples_all_1h_G1/boundariesSl/sv-comp/ssh-simplified/s3_clnt_2_cil-1.boundaries.sl
(set-logic ALL)
(synth-fun Condition_0 ((@g_0 Int) (@find_condition_0 Int) (main@%loop.bound_0 Int) (main@%loop.bound24_0 Int) (main@%loop.bound25_0 Int) (main@%loop.bound26_0 Int) (main@%loop.bound27_0 Int) (main@%loop.bound28_0 Int) (main@%loop.bound29_0 Int) (main@%loop.bound30_0 Int) (main@%loop.bound32_0 Int) (main@%_39_0 Int) (main@%.66.i.i_0 Int) (main@%_42_0 Bool) (main@%_43_0 Bool) (main@%_44_0 Bool) (main@%..i.i_0 Int) (main@%.70.i.i_0 Int) (main@%or.cond73.i.i_0 Bool) (main@%.67.i.i_0 Int) (main@%_48_0 Bool) (main@%_49_0 Bool) (main@%or.cond72.i.i_0 Bool) (main@%or.cond.i.i_0 Bool) (main@%.052.i.i.ph_0 Int) (main@%.049.i.i.ph_0 Int) (main@%.046.i.i.ph_0 Int) (main@%.0.i.i.ph_0 Int) (main@%.038.i.i_0 Int) ) Bool
)
(define-fun main@NewDefault.i.i!_Cond ((@g_0 Int) (@find_condition_0 Int) (main@%loop.bound_0 Int) (main@%loop.bound24_0 Int) (main@%loop.bound25_0 Int) (main@%loop.bound26_0 Int) (main@%loop.bound27_0 Int) (main@%loop.bound28_0 Int) (main@%loop.bound29_0 Int) (main@%loop.bound30_0 Int) (main@%loop.bound32_0 Int) (main@%_39_0 Int) (main@%.66.i.i_0 Int) (main@%_42_0 Bool) (main@%_43_0 Bool) (main@%_44_0 Bool) (main@%..i.i_0 Int) (main@%.70.i.i_0 Int) (main@%or.cond73.i.i_0 Bool) (main@%.67.i.i_0 Int) (main@%_48_0 Bool) (main@%_49_0 Bool) (main@%or.cond72.i.i_0 Bool) (main@%or.cond.i.i_0 Bool) (main@%.052.i.i.ph_0 Int) (main@%.049.i.i.ph_0 Int) (main@%.046.i.i.ph_0 Int) (main@%.0.i.i.ph_0 Int) (main@%.038.i.i_0 Int) ) Bool
	true
)
(define-fun main@_58 ((main@%.052.i.i.ph_0 Int) (main@%.049.i.i.ph_0 Int) (main@%.046.i.i.ph_0 Int) (main@%.0.i.i.ph_0 Int) (main@%or.cond.i.i_0 Bool) (main@%_49_0 Bool) (main@%or.cond72.i.i_0 Bool) (@g_0 Int) (main@%..i.i_0 Int) (main@%.67.i.i_0 Int) (main@%_48_0 Bool) (main@%_39_0 Int) (main@%.038.i.i_0 Int) (main@%or.cond73.i.i_0 Bool) (main@%_44_0 Bool) (main@%.70.i.i_0 Int) (main@%_43_0 Bool) (main@%loop.bound30_0 Int) (main@%_42_0 Bool) (main@%loop.bound32_0 Int) (main@%.66.i.i_0 Int) (main@%loop.bound29_0 Int) (main@%loop.bound28_0 Int) (@find_condition_0 Int) (main@%loop.bound27_0 Int) (main@%loop.bound26_0 Int) (main@%loop.bound25_0 Int) (main@%loop.bound24_0 Int) (main@%loop.bound_0 Int) ) Bool
	true
)
(define-fun main@_56 ((main@%.052.i.i.ph_0 Int) (main@%.049.i.i.ph_0 Int) (main@%.046.i.i.ph_0 Int) (main@%.0.i.i.ph_0 Int) (main@%or.cond.i.i_0 Bool) (main@%_49_0 Bool) (main@%or.cond72.i.i_0 Bool) (@g_0 Int) (main@%..i.i_0 Int) (main@%.67.i.i_0 Int) (main@%_48_0 Bool) (main@%_39_0 Int) (main@%or.cond73.i.i_0 Bool) (main@%_44_0 Bool) (main@%.70.i.i_0 Int) (main@%_43_0 Bool) (main@%loop.bound30_0 Int) (main@%_42_0 Bool) (main@%loop.bound32_0 Int) (main@%.66.i.i_0 Int) (main@%loop.bound29_0 Int) (main@%loop.bound28_0 Int) (@find_condition_0 Int) (main@%loop.bound27_0 Int) (main@%loop.bound26_0 Int) (main@%loop.bound25_0 Int) (main@%loop.bound24_0 Int) (main@%loop.bound_0 Int) ) Bool
	true
)
(define-fun psi_f_0 ((@g_0 Int) (@find_condition_0 Int) (main@%loop.bound_0 Int) (main@%loop.bound24_0 Int) (main@%loop.bound25_0 Int) (main@%loop.bound26_0 Int) (main@%loop.bound27_0 Int) (main@%loop.bound28_0 Int) (main@%loop.bound29_0 Int) (main@%loop.bound30_0 Int) (main@%loop.bound32_0 Int) (main@%_39_0 Int) (main@%.66.i.i_0 Int) (main@%_42_0 Bool) (main@%_43_0 Bool) (main@%_44_0 Bool) (main@%..i.i_0 Int) (main@%.70.i.i_0 Int) (main@%or.cond73.i.i_0 Bool) (main@%.67.i.i_0 Int) (main@%_48_0 Bool) (main@%_49_0 Bool) (main@%or.cond72.i.i_0 Bool) (main@%or.cond.i.i_0 Bool) (main@%.052.i.i.ph_0 Int) (main@%.049.i.i.ph_0 Int) (main@%.046.i.i.ph_0 Int) (main@%.0.i.i.ph_0 Int) (main@%.038.i.i_0 Int) ) Bool
(and (main@_56 main@%.052.i.i.ph_0
          main@%.049.i.i.ph_0
          main@%.046.i.i.ph_0
          main@%.0.i.i.ph_0
          main@%or.cond.i.i_0
          main@%_49_0
          main@%or.cond72.i.i_0
          @g_0
          main@%..i.i_0
          main@%.67.i.i_0
          main@%_48_0
          main@%_39_0
          main@%or.cond73.i.i_0
          main@%_44_0
          main@%.70.i.i_0
          main@%_43_0
          main@%loop.bound30_0
          main@%_42_0
          main@%loop.bound32_0
          main@%.66.i.i_0
          main@%loop.bound29_0
          main@%loop.bound28_0
          @find_condition_0
          main@%loop.bound27_0
          main@%loop.bound26_0
          main@%loop.bound25_0
          main@%loop.bound24_0
          main@%loop.bound_0) (not (main@NewDefault.i.i!_Cond
  @g_0
  @find_condition_0
  main@%loop.bound_0
  main@%loop.bound24_0
  main@%loop.bound25_0
  main@%loop.bound26_0
  main@%loop.bound27_0
  main@%loop.bound28_0
  main@%loop.bound29_0
  main@%loop.bound30_0
  main@%loop.bound32_0
  main@%_39_0
  main@%.66.i.i_0
  main@%_42_0
  main@%_43_0
  main@%_44_0
  main@%..i.i_0
  main@%.70.i.i_0
  main@%or.cond73.i.i_0
  main@%.67.i.i_0
  main@%_48_0
  main@%_49_0
  main@%or.cond72.i.i_0
  main@%or.cond.i.i_0
  main@%.052.i.i.ph_0
  main@%.049.i.i.ph_0
  main@%.046.i.i.ph_0
  main@%.0.i.i.ph_0
  main@%.038.i.i_0)))
)
(define-fun psi_t_0 ((@g_0 Int) (@find_condition_0 Int) (main@%loop.bound_0 Int) (main@%loop.bound24_0 Int) (main@%loop.bound25_0 Int) (main@%loop.bound26_0 Int) (main@%loop.bound27_0 Int) (main@%loop.bound28_0 Int) (main@%loop.bound29_0 Int) (main@%loop.bound30_0 Int) (main@%loop.bound32_0 Int) (main@%_39_0 Int) (main@%.66.i.i_0 Int) (main@%_42_0 Bool) (main@%_43_0 Bool) (main@%_44_0 Bool) (main@%..i.i_0 Int) (main@%.70.i.i_0 Int) (main@%or.cond73.i.i_0 Bool) (main@%.67.i.i_0 Int) (main@%_48_0 Bool) (main@%_49_0 Bool) (main@%or.cond72.i.i_0 Bool) (main@%or.cond.i.i_0 Bool) (main@%.052.i.i.ph_0 Int) (main@%.049.i.i.ph_0 Int) (main@%.046.i.i.ph_0 Int) (main@%.0.i.i.ph_0 Int) (main@%.038.i.i_0 Int) ) Bool
(or (main@NewDefault.i.i!_Cond
  @g_0
  @find_condition_0
  main@%loop.bound_0
  main@%loop.bound24_0
  main@%loop.bound25_0
  main@%loop.bound26_0
  main@%loop.bound27_0
  main@%loop.bound28_0
  main@%loop.bound29_0
  main@%loop.bound30_0
  main@%loop.bound32_0
  main@%_39_0
  main@%.66.i.i_0
  main@%_42_0
  main@%_43_0
  main@%_44_0
  main@%..i.i_0
  main@%.70.i.i_0
  main@%or.cond73.i.i_0
  main@%.67.i.i_0
  main@%_48_0
  main@%_49_0
  main@%or.cond72.i.i_0
  main@%or.cond.i.i_0
  main@%.052.i.i.ph_0
  main@%.049.i.i.ph_0
  main@%.046.i.i.ph_0
  main@%.0.i.i.ph_0
  main@%.038.i.i_0) (not (main@_58 main@%.052.i.i.ph_0
          main@%.049.i.i.ph_0
          main@%.046.i.i.ph_0
          main@%.0.i.i.ph_0
          main@%or.cond.i.i_0
          main@%_49_0
          main@%or.cond72.i.i_0
          @g_0
          main@%..i.i_0
          main@%.67.i.i_0
          main@%_48_0
          main@%_39_0
          main@%.038.i.i_0
          main@%or.cond73.i.i_0
          main@%_44_0
          main@%.70.i.i_0
          main@%_43_0
          main@%loop.bound30_0
          main@%_42_0
          main@%loop.bound32_0
          main@%.66.i.i_0
          main@%loop.bound29_0
          main@%loop.bound28_0
          @find_condition_0
          main@%loop.bound27_0
          main@%loop.bound26_0
          main@%loop.bound25_0
          main@%loop.bound24_0
          main@%loop.bound_0)))
)
(declare-var @g_0 Int)
(declare-var @find_condition_0 Int)
(declare-var main@%loop.bound_0 Int)
(declare-var main@%loop.bound24_0 Int)
(declare-var main@%loop.bound25_0 Int)
(declare-var main@%loop.bound26_0 Int)
(declare-var main@%loop.bound27_0 Int)
(declare-var main@%loop.bound28_0 Int)
(declare-var main@%loop.bound29_0 Int)
(declare-var main@%loop.bound30_0 Int)
(declare-var main@%loop.bound32_0 Int)
(declare-var main@%_39_0 Int)
(declare-var main@%.66.i.i_0 Int)
(declare-var main@%_42_0 Bool)
(declare-var main@%_43_0 Bool)
(declare-var main@%_44_0 Bool)
(declare-var main@%..i.i_0 Int)
(declare-var main@%.70.i.i_0 Int)
(declare-var main@%or.cond73.i.i_0 Bool)
(declare-var main@%.67.i.i_0 Int)
(declare-var main@%_48_0 Bool)
(declare-var main@%_49_0 Bool)
(declare-var main@%or.cond72.i.i_0 Bool)
(declare-var main@%or.cond.i.i_0 Bool)
(declare-var main@%.052.i.i.ph_0 Int)
(declare-var main@%.049.i.i.ph_0 Int)
(declare-var main@%.046.i.i.ph_0 Int)
(declare-var main@%.0.i.i.ph_0 Int)
(declare-var main@%.038.i.i_0 Int)
(constraint (=> (psi_f_0 @g_0 @find_condition_0 main@%loop.bound_0 main@%loop.bound24_0 main@%loop.bound25_0 main@%loop.bound26_0 main@%loop.bound27_0 main@%loop.bound28_0 main@%loop.bound29_0 main@%loop.bound30_0 main@%loop.bound32_0 main@%_39_0 main@%.66.i.i_0 main@%_42_0 main@%_43_0 main@%_44_0 main@%..i.i_0 main@%.70.i.i_0 main@%or.cond73.i.i_0 main@%.67.i.i_0 main@%_48_0 main@%_49_0 main@%or.cond72.i.i_0 main@%or.cond.i.i_0 main@%.052.i.i.ph_0 main@%.049.i.i.ph_0 main@%.046.i.i.ph_0 main@%.0.i.i.ph_0 main@%.038.i.i_0 ) (Condition_0 @g_0 @find_condition_0 main@%loop.bound_0 main@%loop.bound24_0 main@%loop.bound25_0 main@%loop.bound26_0 main@%loop.bound27_0 main@%loop.bound28_0 main@%loop.bound29_0 main@%loop.bound30_0 main@%loop.bound32_0 main@%_39_0 main@%.66.i.i_0 main@%_42_0 main@%_43_0 main@%_44_0 main@%..i.i_0 main@%.70.i.i_0 main@%or.cond73.i.i_0 main@%.67.i.i_0 main@%_48_0 main@%_49_0 main@%or.cond72.i.i_0 main@%or.cond.i.i_0 main@%.052.i.i.ph_0 main@%.049.i.i.ph_0 main@%.046.i.i.ph_0 main@%.0.i.i.ph_0 main@%.038.i.i_0 )))
(constraint (=> (Condition_0 @g_0 @find_condition_0 main@%loop.bound_0 main@%loop.bound24_0 main@%loop.bound25_0 main@%loop.bound26_0 main@%loop.bound27_0 main@%loop.bound28_0 main@%loop.bound29_0 main@%loop.bound30_0 main@%loop.bound32_0 main@%_39_0 main@%.66.i.i_0 main@%_42_0 main@%_43_0 main@%_44_0 main@%..i.i_0 main@%.70.i.i_0 main@%or.cond73.i.i_0 main@%.67.i.i_0 main@%_48_0 main@%_49_0 main@%or.cond72.i.i_0 main@%or.cond.i.i_0 main@%.052.i.i.ph_0 main@%.049.i.i.ph_0 main@%.046.i.i.ph_0 main@%.0.i.i.ph_0 main@%.038.i.i_0 ) (psi_t_0 @g_0 @find_condition_0 main@%loop.bound_0 main@%loop.bound24_0 main@%loop.bound25_0 main@%loop.bound26_0 main@%loop.bound27_0 main@%loop.bound28_0 main@%loop.bound29_0 main@%loop.bound30_0 main@%loop.bound32_0 main@%_39_0 main@%.66.i.i_0 main@%_42_0 main@%_43_0 main@%_44_0 main@%..i.i_0 main@%.70.i.i_0 main@%or.cond73.i.i_0 main@%.67.i.i_0 main@%_48_0 main@%_49_0 main@%or.cond72.i.i_0 main@%or.cond.i.i_0 main@%.052.i.i.ph_0 main@%.049.i.i.ph_0 main@%.046.i.i.ph_0 main@%.0.i.i.ph_0 main@%.038.i.i_0 )))
(check-synth)
