conditionSynthesis/results/repairExamples_all_1h_G1/boundaries/sv-comp/ssh-simplified/s3_clnt_2_cil-1.boundaries.out
(
(define-fun Condition_0 ((vg_0 Int) (vfind_condition_0 Int) (mainv%loop.bound_0 Int) (mainv%loop.bound24_0 Int) (mainv%loop.bound25_0 Int) (mainv%loop.bound26_0 Int) (mainv%loop.bound27_0 Int) (mainv%loop.bound28_0 Int) (mainv%loop.bound29_0 Int) (mainv%loop.bound30_0 Int) (mainv%loop.bound32_0 Int) (mainv%_39_0 Int) (mainv%.66.i.i_0 Int) (mainv%_42_0 Bool) (mainv%_43_0 Bool) (mainv%_44_0 Bool) (mainv%..i.i_0 Int) (mainv%.70.i.i_0 Int) (mainv%or.cond73.i.i_0 Bool) (mainv%.67.i.i_0 Int) (mainv%_48_0 Bool) (mainv%_49_0 Bool) (mainv%or.cond72.i.i_0 Bool) (mainv%or.cond.i.i_0 Bool) (mainv%.052.i.i.ph_0 Int) (mainv%.049.i.i.ph_0 Int) (mainv%.046.i.i.ph_0 Int) (mainv%.0.i.i.ph_0 Int) (mainv%.038.i.i_0 Int)) Bool false)
)
